120
150
85
100
33
33
49
39
60
82
60
43
48
100
59
68
23
90
54
41
42
83
64
35
65
69
91
58
49
81
73
44
95
37
32
28
91
58
47
61
36
95
67
20
87
44
20
50
93
88
51
76
64
74
43
90
48
45
89
32
48
65
44
95
29
66
99
90
23
57
91
71
31
96
100
48
36
56
62
45
25
44
70
96
95
58
25
22
34
60
91
86
44
86
26
29
99
46
57
46
66
71
92
20
23
83
77
33
97
63
34
85
80
93
87
32
75
79
23
97
99
94
